SPARKNaCl/why3-z3/sparknacl-secretbox.adb_219_13_precondition_1.smt2
;; produced by z3_gnatprove.drv ;;
(set-info :smt-lib-version 2.5)
(set-info :source |VC generated by SPARK 2014|)
(set-info :category industrial)
(set-info :status unknown)
;;; generated by SMT-LIB2 driver
;;; SMT-LIB2 driver: bit-vectors, common part
;;; SMT-LIB2: integer arithmetic
;; "length"
(define-fun length ((x Int) (y Int)) Int
  (ite (<= x y) (+ (- y x) 1) 0))

(declare-sort tinteger_32B 0)

;; "tinteger_32B'int"
(declare-fun tinteger_32Bqtint (tinteger_32B) Int)

;; "tinteger_32B'axiom"
(assert
  (forall ((i tinteger_32B))
    (and
      (<= (- 2147483648) (tinteger_32Bqtint i))
      (<= (tinteger_32Bqtint i) 2147483647))))

;; "in_range"
(define-fun in_range ((x Int)) Bool
  (and (<= (- 2147483648) x) (<= x 2147483647)))

;; "to_rep"
(define-fun to_rep ((x tinteger_32B)) Int
  (tinteger_32Bqtint x))

;; "of_rep"
(declare-fun of_rep (Int) tinteger_32B)

;; "inversion_axiom"
(assert
  (forall ((x tinteger_32B))
    (! (= (of_rep (to_rep x)) x) :pattern ((to_rep x)) )))

;; "range_axiom"
(assert
  (forall ((x tinteger_32B))
    (! (in_range (to_rep x)) :pattern ((to_rep x)) )))

;; "coerce_axiom"
(assert
  (forall ((x Int))
    (! (=> (in_range x) (= (to_rep (of_rep x)) x)) :pattern ((to_rep
                                                               (of_rep x))) )))

;; "in_range"
(define-fun in_range1 ((x Int)) Bool
  (and (<= 0 x) (<= x 2147483647)))

(declare-sort byte 0)

;; "to_rep"
(declare-fun to_rep1 (byte) (_ BitVec 8))

;; "of_rep"
(declare-fun of_rep1 ((_ BitVec 8)) byte)

;; "inversion_axiom"
(assert
  (forall ((x byte)) (! (= (of_rep1 (to_rep1 x)) x) :pattern ((to_rep1 x)) )))

;; "range_axiom"
(assert true)

;; "coerce_axiom"
(assert
  (forall ((x (_ BitVec 8)))
    (! (= (to_rep1 (of_rep1 x)) x) :pattern ((to_rep1 (of_rep1 x))) )))

(declare-sort map1 0)

(declare-datatypes ()
  ((map__ref (map__refqtmk (map__content map1)))))

;; "has_bounds"
(declare-fun has_bounds (map1
  Int
  Int) Bool)

(declare-datatypes ()
  ((t (tqtmk (rec__first tinteger_32B)(rec__last tinteger_32B)))))

;; "mk"
(declare-fun mk (Int
  Int) t)

;; "mk_def"
(assert
  (forall ((f Int) (l Int))
    (! (=>
         (in_range f)
         (=>
           (in_range l)
           (and
             (= (to_rep (rec__first (mk f l))) f)
             (= (to_rep (rec__last (mk f l))) l)))) :pattern ((mk f l)) )))

;; "dynamic_property"
(define-fun dynamic_property ((range_first Int) (range_last Int) (low Int) (high Int)) Bool
  (and
    (in_range low)
    (and
      (in_range high)
      (=> (<= low high) (and (in_range1 low) (in_range1 high))))))

(declare-datatypes ()
  ((us_t (us_tqtmk (elts map1)(rt t)))))

;; "of_array"
(define-fun of_array ((a map1) (f Int) (l Int)) us_t
  (us_tqtmk a (mk f l)))

;; "first"
(define-fun first ((a us_t)) Int
  (to_rep (rec__first (rt a))))

;; "last"
(define-fun last ((a us_t)) Int
  (to_rep (rec__last (rt a))))

;; "length"
(define-fun length1 ((a us_t)) Int
  (ite (<= (first a) (last a)) (+ (- (last a) (first a)) 1) 0))

;; "well_formed"
(define-fun well_formed ((a us_t)) Bool
  (has_bounds
    (elts a)
    (to_rep (rec__first (rt a)))
    (to_rep (rec__last (rt a)))))

(declare-const m__first tinteger_32B)

(declare-const m__last tinteger_32B)

(declare-const tag map1)

(declare-const c us_t)

(declare-const n map1)

(declare-const aad us_t)

(declare-sort us_main_type 0)

(declare-datatypes ()
  ((us_split_fields
   (us_split_fieldsqtmk
   (rec__ada___sparknacl__mac__poly_1305_key us_main_type)))))

(declare-datatypes ()
  ((us_split_fields__ref
   (us_split_fields__refqtmk (us_split_fields__content us_split_fields)))))

;; "dynamic_invariant"
(define-fun dynamic_invariant ((temp___expr_254 us_t) (temp___is_init_250 Bool) (temp___skip_constant_251 Bool) (temp___do_toplevel_252 Bool) (temp___do_typ_inv_253 Bool)) Bool
  (and
    (=>
      (not (= temp___skip_constant_251 true))
      (dynamic_property
        0
        2147483647
        (first temp___expr_254)
        (last temp___expr_254)))
    (well_formed temp___expr_254)))

(declare-const m map1)

(declare-const otk_bytes map1)

(declare-const otk__split_fields us_main_type)

;; "otk__split_fields'unused"
(define-fun otk__split_fieldsqtunused () us_split_fields__ref
  (us_split_fields__refqtmk (us_split_fieldsqtmk otk__split_fields)))

;; "otk_bytes'unused"
(define-fun otk_bytesqtunused () map__ref
  (map__refqtmk otk_bytes))

;; "m'unused"
(define-fun mqtunused () map__ref
  (map__refqtmk m))

;; "Assume"
(assert
  (and
    (dynamic_property 0 2147483647 (to_rep m__first) (to_rep m__last))
    (well_formed (of_array m (to_rep m__first) (to_rep m__last)))))

;; "Assume"
(assert (has_bounds tag 0 15))

;; "Assume"
(assert (dynamic_invariant c true false true true))

;; "Assume"
(assert (has_bounds n 0 11))

;; "Assume"
(assert true)

;; "Assume"
(assert (dynamic_invariant aad true false true true))

;; "Assume"
(assert
  (and
    (and
      (and
        (and
          (and
            (and
              (and
                (and (= (to_rep m__first) 0) (= (first c) 0))
                (= (first aad) 0))
              (= (to_rep m__last) (last c)))
            (< (last c) 2147483647))
          (< (to_rep m__last) 2147483647))
        (= (length1 c) (length (to_rep m__first) (to_rep m__last))))
      (< (last aad) 2147483647))
    (<= (+ (+ (length1 c) (length1 aad)) 192) 2147483647)))

;; "Assume"
(assert true)

;; "Assume"
(assert (has_bounds otk_bytes 0 31))

;; "Assume"
(assert true)

;; "Assume"
(assert true)

;; "map__content'result'unused"
(define-fun map__contentqtresultqtunused () map1
  otk_bytes)

;; "temp___compl_1019"
(define-fun temp___compl_1019 () us_t
  (of_array otk_bytes 0 31))

;; "of_array'result'unused"
(define-fun of_arrayqtresultqtunused () us_t
  temp___compl_1019)

;; "o"
(define-fun o () map1
  otk_bytes)

;; "to_array'result'unused"
(define-fun to_arrayqtresultqtunused () map1
  o)

;; "param__c'unused"
(define-fun param__cqtunused () map__ref
  (map__refqtmk o))

;; "map__ref'mk'result'unused"
(define-fun map__refqtmkqtresultqtunused () map__ref
  (map__refqtmk o))

;; "o"
(define-fun o1 () Int
  31)

;; "last'result'unused"
(define-fun lastqtresultqtunused () Int
  o1)

(declare-const o2 tinteger_32B)

;; "Ensures"
(assert (= (to_rep o2) o1))

;; "of_rep'result'unused"
(define-fun of_repqtresultqtunused () tinteger_32B
  o2)

;; "o"
(define-fun o3 () Int
  0)

;; "first'result'unused"
(define-fun firstqtresultqtunused () Int
  o3)

(declare-const o4 tinteger_32B)

;; "Ensures"
(assert (= (to_rep o4) o3))

;; "of_rep'result'unused"
(define-fun of_repqtresultqtunused1 () tinteger_32B
  o4)

;; Goal "def'vc"
;; File "sparknacl-secretbox.ads", line 66, characters 0-0
(assert
  (not (= (to_rep o4) 0)))

(check-sat)
